120 150

56
44
56
51
50
43
59
40
51
45
51
55
50
54
57
46
54
54
59
44
59
42
49
40
57
43
50
49
55
47
46
45
50
57
43
49
46
55
46
49
59
47
55
57
58
44
45
54
51
42
54
54
44
59
59
47
47
56
49
45
44
48
59
43
45
59
56
50
46
44
52
54
59
41
55
50
50
53
48
49
45
44
42
53
51
55
52
46
59
48
43
56
49
49
58
45
53
44
53
47
54
57
45
49
48
43
53
48
49
43
52
54
44
59
46
55
44
51
45
50